NAME: eil22_25
COMMENT: 375.28
VEHICLE: 4
TIME: 0.9219
DIMENSION: 22
CAPACITY: 6000
DELIVERY_SECTION
0 0 0
1 1 600
2 1 300
3 1 60
4 1 60
5 1 60
6 1 20
7 2 600
8 2 60
9 2 40
10 3 600
11 3 60
12 3 60
13 3 60
14 3 20
15 4 600
16 4 600
17 4 60
18 4 60
19 4 60
20 4 20
21 5 1500
22 5 600
23 6 300
24 6 60
25 6 40
26 7 600
27 7 60
28 7 60
29 7 60
30 7 20
31 8 60
32 8 40
33 9 300
34 9 60
35 9 60
36 9 60
37 9 20
38 10 600
39 11 600
40 11 600
41 12 600
42 12 600
43 12 60
44 12 40
45 13 600
46 13 600
47 13 60
48 13 40
49 14 300
50 15 600
51 15 300
52 16 1500
53 16 600
54 17 600
55 17 300
56 17 60
57 17 40
58 18 600
59 18 300
60 19 1500
61 19 600
62 19 300
63 19 60
64 19 40
65 20 1500
66 20 300
67 21 600
68 21 60
69 21 40
PICKUP_SECTION
NODE_SECTION
145 215

151 264

159 261

130 254

128 252

163 247

146 246

161 242

142 239

163 236

148 232

128 231

156 217

129 214

146 208

164 208

141 206

147 193

164 193

129 189

155 185

139 182
DISTANCE_SECTION
DEPOT_SECTION
0
EOF